(set-logic QF_LIA)
(declare-fun x0 () Int)
(declare-fun x1 () Int)
(declare-fun x2 () Int)
(declare-fun x3 () Int)
(declare-fun x4 () Int)
(declare-fun x5 () Int)
(declare-fun x6 () Int)
(declare-fun x7 () Int)
(declare-fun x8 () Int)
(declare-fun x9 () Int)
(declare-fun A0 () Bool)
(declare-fun A1 () Bool)
(declare-fun A2 () Bool)
(declare-fun A3 () Bool)
(declare-fun A4 () Bool)
(declare-fun A5 () Bool)
(declare-fun A6 () Bool)
(declare-fun A7 () Bool)
(declare-fun A8 () Bool)
(declare-fun A9 () Bool)
(assert (let ((.def_0 (* 1 x9))) (let ((.def_1 (< .def_0 1))) (let ((.def_2 (* 1 x1))) (let ((.def_3 (* 1 x4))) (let ((.def_4 (+ .def_3 .def_2))) (let ((.def_5 (< .def_4 1))) (let ((.def_6 (or .def_5 .def_1))) (let ((.def_7 (not .def_6))) (let ((.def_8 (* 1 x6))) (let ((.def_9 (+ .def_2 .def_8))) (let ((.def_10 (< .def_9 (- 1)))) (let ((.def_11 (* (- 1) x1))) (let ((.def_12 (+ .def_8 .def_11))) (let ((.def_13 (< .def_12 1))) (let ((.def_14 (not .def_13))) (let ((.def_15 (= .def_14 .def_10))) (let ((.def_16 (or .def_15 .def_7))) (let ((.def_17 (* (- 1) x4))) (let ((.def_18 (< .def_17 (- 1)))) (let ((.def_19 (not .def_18))) (let ((.def_20 (or .def_19 A2))) (let ((.def_21 (or A0 A1))) (let ((.def_22 (or .def_21 .def_20))) (let ((.def_23 (or .def_22 .def_16))) (let ((.def_24 (not .def_23))) (let ((.def_25 (< .def_0 (- 1)))) (let ((.def_26 (not .def_25))) (let ((.def_27 (* (- 1) x3))) (let ((.def_28 (< .def_27 (- 1)))) (let ((.def_29 (or .def_28 .def_26))) (let ((.def_30 (not .def_29))) (let ((.def_31 (* (- 1) x9))) (let ((.def_32 (* 1 x0))) (let ((.def_33 (+ .def_32 .def_31))) (let ((.def_34 (< .def_33 (- 1)))) (let ((.def_35 (< .def_2 (- 1)))) (let ((.def_36 (= .def_35 .def_34))) (let ((.def_37 (= .def_36 .def_30))) (let ((.def_38 (not .def_37))) (let ((.def_39 (* (- 1) x8))) (let ((.def_40 (* 1 x2))) (let ((.def_41 (+ .def_40 .def_39))) (let ((.def_42 (< .def_41 (- 1)))) (let ((.def_43 (not .def_34))) (let ((.def_44 (or .def_43 .def_42))) (let ((.def_45 (not .def_44))) (let ((.def_46 (or A3 A9))) (let ((.def_47 (not .def_46))) (let ((.def_48 (= .def_47 .def_45))) (let ((.def_49 (or .def_48 .def_38))) (let ((.def_50 (and .def_49 .def_24))) (let ((.def_51 (not .def_50))) (let ((.def_52 (< .def_3 (- 1)))) (let ((.def_53 (not .def_52))) (let ((.def_54 (not A5))) (let ((.def_55 (and .def_54 .def_53))) (let ((.def_56 (< .def_3 1))) (let ((.def_57 (or A5 .def_56))) (let ((.def_58 (and .def_57 .def_55))) (let ((.def_59 (* (- 1) x2))) (let ((.def_60 (+ .def_59 .def_17))) (let ((.def_61 (< .def_60 1))) (let ((.def_62 (or .def_61 A2))) (let ((.def_63 (not .def_62))) (let ((.def_64 (< .def_11 (- 1)))) (let ((.def_65 (not .def_64))) (let ((.def_66 (and A2 .def_65))) (let ((.def_67 (= .def_66 .def_63))) (let ((.def_68 (not .def_67))) (let ((.def_69 (or .def_68 .def_58))) (let ((.def_70 (and A6 .def_54))) (let ((.def_71 (* (- 1) x7))) (let ((.def_72 (< .def_71 1))) (let ((.def_73 (not .def_72))) (let ((.def_74 (+ .def_0 .def_3))) (let ((.def_75 (< .def_74 (- 1)))) (let ((.def_76 (or .def_75 .def_73))) (let ((.def_77 (= .def_76 .def_70))) (let ((.def_78 (not .def_77))) (let ((.def_79 (* 1 x5))) (let ((.def_80 (< .def_79 (- 1)))) (let ((.def_81 (= .def_26 .def_80))) (let ((.def_82 (not .def_81))) (let ((.def_83 (* (- 1) x5))) (let ((.def_84 (+ .def_83 .def_32))) (let ((.def_85 (< .def_84 (- 1)))) (let ((.def_86 (not .def_85))) (let ((.def_87 (not A6))) (let ((.def_88 (and .def_87 .def_86))) (let ((.def_89 (not .def_88))) (let ((.def_90 (or .def_89 .def_82))) (let ((.def_91 (and .def_90 .def_78))) (let ((.def_92 (not .def_91))) (let ((.def_93 (or .def_92 .def_69))) (let ((.def_94 (not .def_93))) (let ((.def_95 (or .def_94 .def_51))) (let ((.def_96 (* 1 x8))) (let ((.def_97 (< .def_96 1))) (let ((.def_98 (not .def_97))) (let ((.def_99 (and .def_98 A0))) (let ((.def_100 (not .def_99))) (let ((.def_101 (not .def_35))) (let ((.def_102 (not A2))) (let ((.def_103 (= .def_102 .def_101))) (let ((.def_104 (not .def_103))) (let ((.def_105 (and .def_104 .def_100))) (let ((.def_106 (not .def_105))) (let ((.def_107 (not A8))) (let ((.def_108 (and A0 .def_107))) (let ((.def_109 (< .def_31 (- 1)))) (let ((.def_110 (not .def_109))) (let ((.def_111 (not A1))) (let ((.def_112 (and .def_111 .def_110))) (let ((.def_113 (not .def_112))) (let ((.def_114 (or .def_113 .def_108))) (let ((.def_115 (not .def_114))) (let ((.def_116 (or .def_115 .def_106))) (let ((.def_117 (not A7))) (let ((.def_118 (and .def_19 .def_117))) (let ((.def_119 (not .def_118))) (let ((.def_120 (< .def_32 (- 1)))) (let ((.def_121 (or .def_120 A9))) (let ((.def_122 (and .def_121 .def_119))) (let ((.def_123 (and A9 .def_54))) (let ((.def_124 (* (- 1) x0))) (let ((.def_125 (< .def_124 1))) (let ((.def_126 (not .def_125))) (let ((.def_127 (not A3))) (let ((.def_128 (= .def_127 .def_126))) (let ((.def_129 (or .def_128 .def_123))) (let ((.def_130 (or .def_129 .def_122))) (let ((.def_131 (and .def_130 .def_116))) (let ((.def_132 (not .def_131))) (let ((.def_133 (< .def_83 (- 1)))) (let ((.def_134 (or .def_111 .def_133))) (let ((.def_135 (not A0))) (let ((.def_136 (or .def_135 .def_54))) (let ((.def_137 (and .def_136 .def_134))) (let ((.def_138 (and A6 .def_111))) (let ((.def_139 (not .def_138))) (let ((.def_140 (+ .def_59 .def_8))) (let ((.def_141 (< .def_140 1))) (let ((.def_142 (not .def_141))) (let ((.def_143 (not .def_1))) (let ((.def_144 (or .def_143 .def_142))) (let ((.def_145 (not .def_144))) (let ((.def_146 (and .def_145 .def_139))) (let ((.def_147 (or .def_146 .def_137))) (let ((.def_148 (+ .def_124 .def_39))) (let ((.def_149 (< .def_148 (- 1)))) (let ((.def_150 (not .def_149))) (let ((.def_151 (or .def_150 .def_127))) (let ((.def_152 (and A6 .def_117))) (let ((.def_153 (and .def_152 .def_151))) (let ((.def_154 (not .def_153))) (let ((.def_155 (not A4))) (let ((.def_156 (< .def_32 1))) (let ((.def_157 (= .def_156 .def_155))) (let ((.def_158 (not .def_157))) (let ((.def_159 (+ .def_31 .def_32))) (let ((.def_160 (< .def_159 (- 1)))) (let ((.def_161 (and A6 .def_160))) (let ((.def_162 (= .def_161 .def_158))) (let ((.def_163 (and .def_162 .def_154))) (let ((.def_164 (or .def_163 .def_147))) (let ((.def_165 (and .def_164 .def_132))) (let ((.def_166 (and .def_165 .def_95))) (let ((.def_167 (<= x9 1))) (let ((.def_168 (<= 0 x9))) (let ((.def_169 (<= x8 1))) (let ((.def_170 (<= 0 x8))) (let ((.def_171 (<= x7 1))) (let ((.def_172 (<= 0 x7))) (let ((.def_173 (<= x6 1))) (let ((.def_174 (<= 0 x6))) (let ((.def_175 (<= x5 1))) (let ((.def_176 (<= 0 x5))) (let ((.def_177 (<= x4 1))) (let ((.def_178 (<= 0 x4))) (let ((.def_179 (<= x3 1))) (let ((.def_180 (<= 0 x3))) (let ((.def_181 (<= x2 1))) (let ((.def_182 (<= 0 x2))) (let ((.def_183 (<= x1 1))) (let ((.def_184 (<= 0 x1))) (let ((.def_185 (<= x0 1))) (let ((.def_186 (<= 0 x0))) (let ((.def_187 (and .def_186 .def_185 .def_184 .def_183 .def_182 .def_181 .def_180 .def_179 .def_178 .def_177 .def_176 .def_175 .def_174 .def_173 .def_172 .def_171 .def_170 .def_169 .def_168 .def_167 .def_166))) .def_187)))))))))))))))))))))))))))))))))))))))))))))))))))))))))))))))))))))))))))))))))))))))))))))))))))))))))))))))))))))))))))))))))))))))))))))))))))))))))))))))))))))))))))))))))))))))))))))
(check-sat)
